31 31
19
3 3   16 23
3 4   28 27
3 5   16 26
3 6   28 21
3 7   28 14
3 8   25 23
3 9   22 22
3 10   25 13
3 11   16 12
3 12   16 0
3 13   25 0
3 14   28 0
3 22   22 0
3 31   19 0
4 3   12 28
4 7   12 21
4 8   12 13
4 13   12 0
12 31   0 0